% seed = 0

mint = 22;
% maxt = 66;

nActs = 32;
dur = [0,4,2,1,4,1,2,1,1,2,1,1,4,1,1,1,3,1,1,3,4,1,6,1,3,1,2,4,3,3,3,0];

nSkills = 7;
sreq = [| 0,0,0,0,0,0,0,
	| 0,1,1,2,0,1,1,
	| 0,0,1,1,1,0,1,
	| 0,1,0,1,1,0,0,
	| 0,0,1,0,0,1,0,
	| 0,0,0,0,0,1,0,
	| 0,1,0,0,0,0,0,
	| 0,1,1,0,1,0,1,
	| 1,0,1,1,0,0,1,
	| 0,1,0,2,0,0,0,
	| 0,1,1,1,0,0,1,
	| 1,0,1,0,0,1,0,
	| 0,2,0,1,0,0,2,
	| 0,0,0,0,1,0,0,
	| 0,0,1,1,3,0,0,
	| 0,2,0,1,1,0,0,
	| 0,2,0,1,1,1,0,
	| 0,0,1,0,0,0,0,
	| 0,0,2,0,0,0,0,
	| 0,0,0,0,2,1,1,
	| 0,0,0,0,1,2,0,
	| 1,0,0,0,0,0,0,
	| 0,2,1,1,0,0,1,
	| 0,0,0,0,1,0,0,
	| 2,0,1,2,1,0,0,
	| 0,0,1,2,1,0,0,
	| 0,0,1,0,0,0,0,
	| 0,0,3,0,1,0,0,
	| 0,0,0,0,2,0,0,
	| 0,0,1,2,2,0,0,
	| 1,0,0,0,0,0,0,
	| 0,0,0,0,0,0,0, |];

% SumOfsreq = 95;

nResources = 8;
mastery = [| true,true,true,false,true,false,true,
	| false,true,true,true,true,true,false,
	| false,false,true,true,true,true,true,
	| false,true,true,true,false,true,true,
	| true,true,true,false,true,true,false,
	| false,true,true,true,true,false,true,
	| true,false,false,true,true,true,true,
	| true,false,false,true,true,true,true, |];

nPrecs = 48;
pred = [1,1,1,2,2,2,3,3,3,4,4,4,5,5,5,6,7,8,9,10,11,12,12,13,14,14,15,15,16,17,18,18,19,20,21,21,22,23,23,24,25,25,26,27,28,29,30,31];
succ = [2,3,4,14,15,8,6,7,16,10,11,5,9,19,21,12,13,20,29,25,18,29,24,20,23,24,17,31,22,23,19,27,20,22,27,23,26,25,28,27,26,29,30,28,30,32,32,32];

nUnrels = 279;
unpred = [2,2,2,2,2,2,2,2,2,2,2,2,2,2,3,3,3,3,3,3,3,3,3,3,3,3,3,3,3,4,4,4,4,4,4,4,4,4,4,4,5,5,5,5,5,5,5,5,5,5,5,5,5,5,6,6,6,6,6,6,6,6,6,6,6,6,6,6,6,6,6,6,6,7,7,7,7,7,7,7,7,7,7,7,7,7,7,7,7,7,7,7,8,8,8,8,8,8,8,8,8,8,8,8,8,8,8,8,8,8,8,9,9,9,9,9,9,9,9,9,9,9,9,9,9,9,9,9,9,9,9,9,10,10,10,10,10,10,10,10,10,10,10,10,10,10,10,10,10,11,11,11,11,11,11,11,11,11,11,11,11,12,12,12,12,12,12,12,12,12,12,12,12,12,12,13,13,13,13,13,13,13,13,13,13,13,13,13,13,14,14,14,14,14,14,14,14,14,15,15,15,15,15,15,15,15,16,16,16,16,16,16,16,16,16,16,16,16,17,17,17,17,17,17,17,17,18,18,18,18,18,18,19,19,19,19,19,19,19,19,20,20,20,20,20,20,20,20,21,21,21,22,22,22,22,22,22,22,23,23,23,24,24,24,24,25,25,25,26,26,26,26,27,27,28,28,29,29,30];
unsucc = [3,4,5,6,7,9,10,11,12,13,16,18,19,21,4,5,8,9,10,11,14,15,17,18,19,21,23,25,31,6,7,8,12,13,14,15,16,17,24,31,6,7,8,10,11,12,13,14,15,16,17,18,24,31,7,8,9,10,11,13,14,15,16,17,18,19,20,21,22,23,25,26,31,8,9,10,11,12,14,15,16,17,18,19,21,23,24,25,27,28,29,31,9,10,11,12,13,14,15,16,17,18,19,21,23,24,25,27,28,29,31,10,11,12,13,14,15,16,17,18,19,20,21,22,23,24,25,26,27,28,30,31,11,12,13,14,15,16,17,18,19,20,21,22,23,24,27,28,31,12,13,14,15,16,17,21,23,24,25,29,31,13,14,15,16,17,18,19,20,21,22,23,25,26,31,14,15,16,17,18,19,21,23,24,25,27,28,29,31,15,16,17,18,19,20,21,22,31,16,18,19,20,21,22,24,27,17,18,19,20,21,23,24,25,27,28,29,31,18,19,20,21,22,24,27,31,21,23,24,25,29,31,21,23,24,25,27,28,29,31,21,23,24,25,27,28,29,31,22,24,31,23,24,25,27,28,29,31,24,27,31,25,26,29,31,27,28,31,27,28,29,31,29,31,29,31,30,31,31];

USEFUL_RES = [{},
	{1,2,3,4,5,6,7,8},
	{1,2,3,4,5,6,7,8},
	{1,2,3,4,5,6,7,8},
	{1,2,3,4,5,6,7,8},
	{2,3,4,5,7,8},
	{1,2,4,5,6},
	{1,2,3,4,5,6,7,8},
	{1,2,3,4,5,6,7,8},
	{1,2,3,4,5,6,7,8},
	{1,2,3,4,5,6,7,8},
	{1,2,3,4,5,6,7,8},
	{1,2,3,4,5,6,7,8},
	{1,2,3,5,6,7,8},
	{1,2,3,4,5,6,7,8},
	{1,2,3,4,5,6,7,8},
	{1,2,3,4,5,6,7,8},
	{1,2,3,4,5,6},
	{1,2,3,4,5,6},
	{1,2,3,4,5,6,7,8},
	{1,2,3,4,5,6,7,8},
	{1,5,7,8},
	{1,2,3,4,5,6,7,8},
	{1,2,3,5,6,7,8},
	{1,2,3,4,5,6,7,8},
	{1,2,3,4,5,6,7,8},
	{1,2,3,4,5,6},
	{1,2,3,4,5,6,7,8},
	{1,2,3,5,6,7,8},
	{1,2,3,4,5,6,7,8},
	{1,5,7,8},
	{}];

POTENTIAL_ACT = [{2,3,4,5,7,8,9,10,11,12,13,14,15,16,17,18,19,20,21,22,23,24,25,26,27,28,29,30,31},
	{2,3,4,5,6,7,8,9,10,11,12,13,14,15,16,17,18,19,20,21,23,24,25,26,27,28,29,30},
	{2,3,4,5,6,8,9,10,11,12,13,14,15,16,17,18,19,20,21,23,24,25,26,27,28,29,30},
	{2,3,4,5,6,7,8,9,10,11,12,13,15,16,17,18,19,20,21,23,25,26,27,28,30},
	{2,3,4,5,6,7,8,9,10,11,12,13,14,15,16,17,18,19,20,21,22,23,24,25,26,27,28,29,30,31},
	{2,3,4,5,7,8,9,10,11,12,13,14,15,16,17,18,19,20,21,23,24,25,26,27,28,29,30},
	{2,3,4,5,6,8,9,10,11,12,13,14,15,16,17,20,21,22,23,24,25,26,28,29,30,31},
	{2,3,4,5,6,8,9,10,11,12,13,14,15,16,17,20,21,22,23,24,25,26,28,29,30,31}];
